% Instance for pentominoes model generated using https://github.com/zayenz/minizinc-pentominoes-generator
% Instance generated for board size 20 with 5 tiles using 42 as seed
% Generated board
%    33333444444444444444
%    33333344444444444444
%    33333344444444444444
%    11115355544444444444
%    11115555544444444444
%    11115522244444444444
%    11155522224444444444
%    11155522224444444444
%    11555522224444444444
%    55555522222224444444
%    55555222222224444444
%    55555222222222444444
%    55555222222222444444
%    55552222222224444444
%    55555222222222444444
%    55555222222222444444
%    55555222222222444444
%    55555222222222444444
%    55555222222222444444
%    55555222222222444444

size = 20;
tiles = 5;
expressions = [
    "( ([2 3 4 5 6]* 1{4} [2 3 4 5 6]{16} [2 3 4 5 6] 1{4} [2 3 4 5 6]{16} [2 3 4 5 6] 1{4} [2 3 4 5 6]{16} [2 3 4 5 6] 1{3} [2 3 4 5 6]{17} [2 3 4 5 6] 1{3} [2 3 4 5 6]{17} [2 3 4 5 6] 1{2} [2 3 4 5 6]*) | ([2 3 4 5 6]* 1{6} [2 3 4 5 6]{3} [2 3 4 5 6] [2 3 4 5 6]{11} 1{6} [2 3 4 5 6]{3} [2 3 4 5 6] [2 3 4 5 6]{12} 1{5} [2 3 4 5 6]{3} [2 3 4 5 6] [2 3 4 5 6]{14} 1{3} [2 3 4 5 6]*) | ([2 3 4 5 6]* 1{2} [2 3 4 5 6] [2 3 4 5 6]{17} 1{3} [2 3 4 5 6] [2 3 4 5 6]{17} 1{3} [2 3 4 5 6] [2 3 4 5 6]{16} 1{4} [2 3 4 5 6] [2 3 4 5 6]{16} 1{4} [2 3 4 5 6] [2 3 4 5 6]{16} 1{4} [2 3 4 5 6]*) | ([2 3 4 5 6]* 1{3} [2 3 4 5 6]{14} [2 3 4 5 6] [2 3 4 5 6]{3} 1{5} [2 3 4 5 6]{12} [2 3 4 5 6] [2 3 4 5 6]{3} 1{6} [2 3 4 5 6]{11} [2 3 4 5 6] [2 3 4 5 6]{3} 1{6} [2 3 4 5 6]*) | ([2 3 4 5 6]* 1{4} [2 3 4 5 6] [2 3 4 5 6]{16} 1{4} [2 3 4 5 6] [2 3 4 5 6]{16} 1{4} [2 3 4 5 6] [2 3 4 5 6]{17} 1{3} [2 3 4 5 6] [2 3 4 5 6]{17} 1{3} [2 3 4 5 6] [2 3 4 5 6]{18} 1{2} [2 3 4 5 6]*) | ([2 3 4 5 6]* 1{6} [2 3 4 5 6]{11} [2 3 4 5 6] [2 3 4 5 6]{3} 1{6} [2 3 4 5 6]{11} [2 3 4 5 6] [2 3 4 5 6]{3} 1{5} [2 3 4 5 6]{12} [2 3 4 5 6] [2 3 4 5 6]{3} 1{3} [2 3 4 5 6]*) | ([2 3 4 5 6]* 1{2} [2 3 4 5 6]{18} [2 3 4 5 6] 1{3} [2 3 4 5 6]{17} [2 3 4 5 6] 1{3} [2 3 4 5 6]{17} [2 3 4 5 6] 1{4} [2 3 4 5 6]{16} [2 3 4 5 6] 1{4} [2 3 4 5 6]{16} [2 3 4 5 6] 1{4} [2 3 4 5 6]*) | ([2 3 4 5 6]* 1{3} [2 3 4 5 6]{3} [2 3 4 5 6] [2 3 4 5 6]{12} 1{5} [2 3 4 5 6]{3} [2 3 4 5 6] [2 3 4 5 6]{11} 1{6} [2 3 4 5 6]{3} [2 3 4 5 6] [2 3 4 5 6]{11} 1{6} [2 3 4 5 6]*) )",
    "( ([1 3 4 5 6]* 2{3} [1 3 4 5 6]{11} [1 3 4 5 6] [1 3 4 5 6]{6} 2{4} [1 3 4 5 6]{10} [1 3 4 5 6] [1 3 4 5 6]{6} 2{4} [1 3 4 5 6]{10} [1 3 4 5 6] [1 3 4 5 6]{6} 2{4} [1 3 4 5 6]{10} [1 3 4 5 6] [1 3 4 5 6]{6} 2{7} [1 3 4 5 6]{7} [1 3 4 5 6] [1 3 4 5 6]{5} 2{8} [1 3 4 5 6]{7} [1 3 4 5 6] [1 3 4 5 6]{5} 2{9} [1 3 4 5 6]{6} [1 3 4 5 6] [1 3 4 5 6]{5} 2{9} [1 3 4 5 6]{6} [1 3 4 5 6] [1 3 4 5 6]{4} 2{9} [1 3 4 5 6]{7} [1 3 4 5 6] [1 3 4 5 6]{5} 2{9} [1 3 4 5 6]{6} [1 3 4 5 6] [1 3 4 5 6]{5} 2{9} [1 3 4 5 6]{6} [1 3 4 5 6] [1 3 4 5 6]{5} 2{9} [1 3 4 5 6]{6} [1 3 4 5 6] [1 3 4 5 6]{5} 2{9} [1 3 4 5 6]{6} [1 3 4 5 6] [1 3 4 5 6]{5} 2{9} [1 3 4 5 6]{6} [1 3 4 5 6] [1 3 4 5 6]{5} 2{9} [1 3 4 5 6]*) | ([1 3 4 5 6]* 2{1} [1 3 4 5 6]{13} [1 3 4 5 6] 2{10} [1 3 4 5 6]{10} [1 3 4 5 6] 2{15} [1 3 4 5 6]{5} [1 3 4 5 6] 2{15} [1 3 4 5 6]{5} [1 3 4 5 6] 2{15} [1 3 4 5 6]{5} [1 3 4 5 6] 2{14} [1 3 4 5 6]{6} [1 3 4 5 6] 2{11} [1 3 4 5 6]{9} [1 3 4 5 6] 2{11} [1 3 4 5 6]{9} [1 3 4 5 6] 2{11} [1 3 4 5 6]{9} [1 3 4 5 6] 2{6} [1 3 4 5 6]{1} 2{2} [1 3 4 5 6]*) | ([1 3 4 5 6]* 2{9} [1 3 4 5 6]{5} [1 3 4 5 6] [1 3 4 5 6]{6} 2{9} [1 3 4 5 6]{5} [1 3 4 5 6] [1 3 4 5 6]{6} 2{9} [1 3 4 5 6]{5} [1 3 4 5 6] [1 3 4 5 6]{6} 2{9} [1 3 4 5 6]{5} [1 3 4 5 6] [1 3 4 5 6]{6} 2{9} [1 3 4 5 6]{5} [1 3 4 5 6] [1 3 4 5 6]{6} 2{9} [1 3 4 5 6]{5} [1 3 4 5 6] [1 3 4 5 6]{7} 2{9} [1 3 4 5 6]{4} [1 3 4 5 6] [1 3 4 5 6]{6} 2{9} [1 3 4 5 6]{5} [1 3 4 5 6] [1 3 4 5 6]{6} 2{9} [1 3 4 5 6]{5} [1 3 4 5 6] [1 3 4 5 6]{7} 2{8} [1 3 4 5 6]{5} [1 3 4 5 6] [1 3 4 5 6]{7} 2{7} [1 3 4 5 6]{6} [1 3 4 5 6] [1 3 4 5 6]{10} 2{4} [1 3 4 5 6]{6} [1 3 4 5 6] [1 3 4 5 6]{10} 2{4} [1 3 4 5 6]{6} [1 3 4 5 6] [1 3 4 5 6]{10} 2{4} [1 3 4 5 6]{6} [1 3 4 5 6] [1 3 4 5 6]{11} 2{3} [1 3 4 5 6]*) | ([1 3 4 5 6]* 2{2} [1 3 4 5 6]{1} 2{6} [1 3 4 5 6] [1 3 4 5 6]{9} 2{11} [1 3 4 5 6] [1 3 4 5 6]{9} 2{11} [1 3 4 5 6] [1 3 4 5 6]{9} 2{11} [1 3 4 5 6] [1 3 4 5 6]{6} 2{14} [1 3 4 5 6] [1 3 4 5 6]{5} 2{15} [1 3 4 5 6] [1 3 4 5 6]{5} 2{15} [1 3 4 5 6] [1 3 4 5 6]{5} 2{15} [1 3 4 5 6] [1 3 4 5 6]{10} 2{10} [1 3 4 5 6] [1 3 4 5 6]{13} 2{1} [1 3 4 5 6]*) | ([1 3 4 5 6]* 2{3} [1 3 4 5 6]{6} [1 3 4 5 6] [1 3 4 5 6]{10} 2{4} [1 3 4 5 6]{6} [1 3 4 5 6] [1 3 4 5 6]{10} 2{4} [1 3 4 5 6]{6} [1 3 4 5 6] [1 3 4 5 6]{10} 2{4} [1 3 4 5 6]{6} [1 3 4 5 6] [1 3 4 5 6]{7} 2{7} [1 3 4 5 6]{6} [1 3 4 5 6] [1 3 4 5 6]{7} 2{8} [1 3 4 5 6]{5} [1 3 4 5 6] [1 3 4 5 6]{6} 2{9} [1 3 4 5 6]{5} [1 3 4 5 6] [1 3 4 5 6]{6} 2{9} [1 3 4 5 6]{5} [1 3 4 5 6] [1 3 4 5 6]{7} 2{9} [1 3 4 5 6]{4} [1 3 4 5 6] [1 3 4 5 6]{6} 2{9} [1 3 4 5 6]{5} [1 3 4 5 6] [1 3 4 5 6]{6} 2{9} [1 3 4 5 6]{5} [1 3 4 5 6] [1 3 4 5 6]{6} 2{9} [1 3 4 5 6]{5} [1 3 4 5 6] [1 3 4 5 6]{6} 2{9} [1 3 4 5 6]{5} [1 3 4 5 6] [1 3 4 5 6]{6} 2{9} [1 3 4 5 6]{5} [1 3 4 5 6] [1 3 4 5 6]{6} 2{9} [1 3 4 5 6]*) | ([1 3 4 5 6]* 2{1} [1 3 4 5 6]{6} [1 3 4 5 6] [1 3 4 5 6]{10} 2{10} [1 3 4 5 6] [1 3 4 5 6]{5} 2{15} [1 3 4 5 6] [1 3 4 5 6]{5} 2{15} [1 3 4 5 6] [1 3 4 5 6]{5} 2{15} [1 3 4 5 6] [1 3 4 5 6]{6} 2{14} [1 3 4 5 6] [1 3 4 5 6]{9} 2{11} [1 3 4 5 6] [1 3 4 5 6]{9} 2{11} [1 3 4 5 6] [1 3 4 5 6]{9} 2{11} [1 3 4 5 6] [1 3 4 5 6]{11} 2{2} [1 3 4 5 6]{1} 2{6} [1 3 4 5 6]*) | ([1 3 4 5 6]* 2{9} [1 3 4 5 6]{6} [1 3 4 5 6] [1 3 4 5 6]{5} 2{9} [1 3 4 5 6]{6} [1 3 4 5 6] [1 3 4 5 6]{5} 2{9} [1 3 4 5 6]{6} [1 3 4 5 6] [1 3 4 5 6]{5} 2{9} [1 3 4 5 6]{6} [1 3 4 5 6] [1 3 4 5 6]{5} 2{9} [1 3 4 5 6]{6} [1 3 4 5 6] [1 3 4 5 6]{5} 2{9} [1 3 4 5 6]{6} [1 3 4 5 6] [1 3 4 5 6]{4} 2{9} [1 3 4 5 6]{7} [1 3 4 5 6] [1 3 4 5 6]{5} 2{9} [1 3 4 5 6]{6} [1 3 4 5 6] [1 3 4 5 6]{5} 2{9} [1 3 4 5 6]{6} [1 3 4 5 6] [1 3 4 5 6]{5} 2{8} [1 3 4 5 6]{7} [1 3 4 5 6] [1 3 4 5 6]{6} 2{7} [1 3 4 5 6]{7} [1 3 4 5 6] [1 3 4 5 6]{6} 2{4} [1 3 4 5 6]{10} [1 3 4 5 6] [1 3 4 5 6]{6} 2{4} [1 3 4 5 6]{10} [1 3 4 5 6] [1 3 4 5 6]{6} 2{4} [1 3 4 5 6]{10} [1 3 4 5 6] [1 3 4 5 6]{6} 2{3} [1 3 4 5 6]*) | ([1 3 4 5 6]* 2{6} [1 3 4 5 6]{1} 2{2} [1 3 4 5 6]{11} [1 3 4 5 6] 2{11} [1 3 4 5 6]{9} [1 3 4 5 6] 2{11} [1 3 4 5 6]{9} [1 3 4 5 6] 2{11} [1 3 4 5 6]{9} [1 3 4 5 6] 2{14} [1 3 4 5 6]{6} [1 3 4 5 6] 2{15} [1 3 4 5 6]{5} [1 3 4 5 6] 2{15} [1 3 4 5 6]{5} [1 3 4 5 6] 2{15} [1 3 4 5 6]{5} [1 3 4 5 6] 2{10} [1 3 4 5 6]{10} [1 3 4 5 6] [1 3 4 5 6]{6} 2{1} [1 3 4 5 6]*) )",
    "( ([1 2 4 5 6]* 3{5} [1 2 4 5 6]{15} [1 2 4 5 6] 3{6} [1 2 4 5 6]{14} [1 2 4 5 6] 3{6} [1 2 4 5 6]{14} [1 2 4 5 6] [1 2 4 5 6]{5} 3{1} [1 2 4 5 6]*) | ([1 2 4 5 6]* 3{3} [1 2 4 5 6] [1 2 4 5 6]{17} 3{3} [1 2 4 5 6] [1 2 4 5 6]{17} 3{3} [1 2 4 5 6] [1 2 4 5 6]{17} 3{3} [1 2 4 5 6] [1 2 4 5 6]{17} 3{3} [1 2 4 5 6] [1 2 4 5 6]{16} 3{3} [1 2 4 5 6]*) | ([1 2 4 5 6]* 3{1} [1 2 4 5 6]{5} [1 2 4 5 6] [1 2 4 5 6]{14} 3{6} [1 2 4 5 6] [1 2 4 5 6]{14} 3{6} [1 2 4 5 6] [1 2 4 5 6]{15} 3{5} [1 2 4 5 6]*) | ([1 2 4 5 6]* 3{3} [1 2 4 5 6]{16} [1 2 4 5 6] 3{3} [1 2 4 5 6]{17} [1 2 4 5 6] 3{3} [1 2 4 5 6]{17} [1 2 4 5 6] 3{3} [1 2 4 5 6]{17} [1 2 4 5 6] 3{3} [1 2 4 5 6]{17} [1 2 4 5 6] 3{3} [1 2 4 5 6]*) | ([1 2 4 5 6]* 3{5} [1 2 4 5 6] [1 2 4 5 6]{14} 3{6} [1 2 4 5 6] [1 2 4 5 6]{14} 3{6} [1 2 4 5 6] [1 2 4 5 6]{14} 3{1} [1 2 4 5 6]*) | ([1 2 4 5 6]* 3{3} [1 2 4 5 6]{17} [1 2 4 5 6] 3{3} [1 2 4 5 6]{17} [1 2 4 5 6] 3{3} [1 2 4 5 6]{17} [1 2 4 5 6] 3{3} [1 2 4 5 6]{17} [1 2 4 5 6] 3{3} [1 2 4 5 6]{17} [1 2 4 5 6] [1 2 4 5 6]{1} 3{3} [1 2 4 5 6]*) | ([1 2 4 5 6]* 3{1} [1 2 4 5 6]{14} [1 2 4 5 6] 3{6} [1 2 4 5 6]{14} [1 2 4 5 6] 3{6} [1 2 4 5 6]{14} [1 2 4 5 6] 3{5} [1 2 4 5 6]*) | ([1 2 4 5 6]* 3{3} [1 2 4 5 6]{1} [1 2 4 5 6] [1 2 4 5 6]{17} 3{3} [1 2 4 5 6] [1 2 4 5 6]{17} 3{3} [1 2 4 5 6] [1 2 4 5 6]{17} 3{3} [1 2 4 5 6] [1 2 4 5 6]{17} 3{3} [1 2 4 5 6] [1 2 4 5 6]{17} 3{3} [1 2 4 5 6]*) )",
    "( ([1 2 3 5 6]* 4{15} [1 2 3 5 6] [1 2 3 5 6]{6} 4{14} [1 2 3 5 6] [1 2 3 5 6]{6} 4{14} [1 2 3 5 6] [1 2 3 5 6]{9} 4{11} [1 2 3 5 6] [1 2 3 5 6]{9} 4{11} [1 2 3 5 6] [1 2 3 5 6]{9} 4{11} [1 2 3 5 6] [1 2 3 5 6]{10} 4{10} [1 2 3 5 6] [1 2 3 5 6]{10} 4{10} [1 2 3 5 6] [1 2 3 5 6]{10} 4{10} [1 2 3 5 6] [1 2 3 5 6]{13} 4{7} [1 2 3 5 6] [1 2 3 5 6]{13} 4{7} [1 2 3 5 6] [1 2 3 5 6]{14} 4{6} [1 2 3 5 6] [1 2 3 5 6]{14} 4{6} [1 2 3 5 6] [1 2 3 5 6]{13} 4{7} [1 2 3 5 6] [1 2 3 5 6]{14} 4{6} [1 2 3 5 6] [1 2 3 5 6]{14} 4{6} [1 2 3 5 6] [1 2 3 5 6]{14} 4{6} [1 2 3 5 6] [1 2 3 5 6]{14} 4{6} [1 2 3 5 6] [1 2 3 5 6]{14} 4{6} [1 2 3 5 6] [1 2 3 5 6]{14} 4{6} [1 2 3 5 6]*) | ([1 2 3 5 6]* 4{1} [1 2 3 5 6] [1 2 3 5 6]{17} 4{3} [1 2 3 5 6] [1 2 3 5 6]{17} 4{3} [1 2 3 5 6] [1 2 3 5 6]{17} 4{3} [1 2 3 5 6] [1 2 3 5 6]{14} 4{6} [1 2 3 5 6] [1 2 3 5 6]{11} 4{9} [1 2 3 5 6] [1 2 3 5 6]{11} 4{9} [1 2 3 5 6] [1 2 3 5 6]{11} 4{9} [1 2 3 5 6] [1 2 3 5 6]{6} 4{1} [1 2 3 5 6]{2} 4{11} [1 2 3 5 6] 4{20} [1 2 3 5 6] 4{20} [1 2 3 5 6] 4{20} [1 2 3 5 6] 4{20} [1 2 3 5 6] 4{20} [1 2 3 5 6] 4{20} [1 2 3 5 6]*) | ([1 2 3 5 6]* 4{6} [1 2 3 5 6]{14} [1 2 3 5 6] 4{6} [1 2 3 5 6]{14} [1 2 3 5 6] 4{6} [1 2 3 5 6]{14} [1 2 3 5 6] 4{6} [1 2 3 5 6]{14} [1 2 3 5 6] 4{6} [1 2 3 5 6]{14} [1 2 3 5 6] 4{6} [1 2 3 5 6]{14} [1 2 3 5 6] 4{7} [1 2 3 5 6]{13} [1 2 3 5 6] 4{6} [1 2 3 5 6]{14} [1 2 3 5 6] 4{6} [1 2 3 5 6]{14} [1 2 3 5 6] 4{7} [1 2 3 5 6]{13} [1 2 3 5 6] 4{7} [1 2 3 5 6]{13} [1 2 3 5 6] 4{10} [1 2 3 5 6]{10} [1 2 3 5 6] 4{10} [1 2 3 5 6]{10} [1 2 3 5 6] 4{10} [1 2 3 5 6]{10} [1 2 3 5 6] 4{11} [1 2 3 5 6]{9} [1 2 3 5 6] 4{11} [1 2 3 5 6]{9} [1 2 3 5 6] 4{11} [1 2 3 5 6]{9} [1 2 3 5 6] 4{14} [1 2 3 5 6]{6} [1 2 3 5 6] 4{14} [1 2 3 5 6]{6} [1 2 3 5 6] 4{15} [1 2 3 5 6]*) | ([1 2 3 5 6]* 4{20} [1 2 3 5 6] 4{20} [1 2 3 5 6] 4{20} [1 2 3 5 6] 4{20} [1 2 3 5 6] 4{20} [1 2 3 5 6] 4{20} [1 2 3 5 6] 4{11} [1 2 3 5 6]{2} 4{1} [1 2 3 5 6]{6} [1 2 3 5 6] 4{9} [1 2 3 5 6]{11} [1 2 3 5 6] 4{9} [1 2 3 5 6]{11} [1 2 3 5 6] 4{9} [1 2 3 5 6]{11} [1 2 3 5 6] 4{6} [1 2 3 5 6]{14} [1 2 3 5 6] 4{3} [1 2 3 5 6]{17} [1 2 3 5 6] 4{3} [1 2 3 5 6]{17} [1 2 3 5 6] 4{3} [1 2 3 5 6]{17} [1 2 3 5 6] 4{1} [1 2 3 5 6]*) | ([1 2 3 5 6]* 4{15} [1 2 3 5 6]{5} [1 2 3 5 6] 4{14} [1 2 3 5 6]{6} [1 2 3 5 6] 4{14} [1 2 3 5 6]{6} [1 2 3 5 6] 4{11} [1 2 3 5 6]{9} [1 2 3 5 6] 4{11} [1 2 3 5 6]{9} [1 2 3 5 6] 4{11} [1 2 3 5 6]{9} [1 2 3 5 6] 4{10} [1 2 3 5 6]{10} [1 2 3 5 6] 4{10} [1 2 3 5 6]{10} [1 2 3 5 6] 4{10} [1 2 3 5 6]{10} [1 2 3 5 6] 4{7} [1 2 3 5 6]{13} [1 2 3 5 6] 4{7} [1 2 3 5 6]{13} [1 2 3 5 6] 4{6} [1 2 3 5 6]{14} [1 2 3 5 6] 4{6} [1 2 3 5 6]{14} [1 2 3 5 6] 4{7} [1 2 3 5 6]{13} [1 2 3 5 6] 4{6} [1 2 3 5 6]{14} [1 2 3 5 6] 4{6} [1 2 3 5 6]{14} [1 2 3 5 6] 4{6} [1 2 3 5 6]{14} [1 2 3 5 6] 4{6} [1 2 3 5 6]{14} [1 2 3 5 6] 4{6} [1 2 3 5 6]{14} [1 2 3 5 6] 4{6} [1 2 3 5 6]*) | ([1 2 3 5 6]* 4{1} [1 2 3 5 6]{19} [1 2 3 5 6] 4{3} [1 2 3 5 6]{17} [1 2 3 5 6] 4{3} [1 2 3 5 6]{17} [1 2 3 5 6] 4{3} [1 2 3 5 6]{17} [1 2 3 5 6] 4{6} [1 2 3 5 6]{14} [1 2 3 5 6] 4{9} [1 2 3 5 6]{11} [1 2 3 5 6] 4{9} [1 2 3 5 6]{11} [1 2 3 5 6] 4{9} [1 2 3 5 6]{11} [1 2 3 5 6] 4{11} [1 2 3 5 6]{2} 4{1} [1 2 3 5 6]{6} [1 2 3 5 6] 4{20} [1 2 3 5 6] 4{20} [1 2 3 5 6] 4{20} [1 2 3 5 6] 4{20} [1 2 3 5 6] 4{20} [1 2 3 5 6] 4{20} [1 2 3 5 6]*) | ([1 2 3 5 6]* 4{6} [1 2 3 5 6] [1 2 3 5 6]{14} 4{6} [1 2 3 5 6] [1 2 3 5 6]{14} 4{6} [1 2 3 5 6] [1 2 3 5 6]{14} 4{6} [1 2 3 5 6] [1 2 3 5 6]{14} 4{6} [1 2 3 5 6] [1 2 3 5 6]{14} 4{6} [1 2 3 5 6] [1 2 3 5 6]{13} 4{7} [1 2 3 5 6] [1 2 3 5 6]{14} 4{6} [1 2 3 5 6] [1 2 3 5 6]{14} 4{6} [1 2 3 5 6] [1 2 3 5 6]{13} 4{7} [1 2 3 5 6] [1 2 3 5 6]{13} 4{7} [1 2 3 5 6] [1 2 3 5 6]{10} 4{10} [1 2 3 5 6] [1 2 3 5 6]{10} 4{10} [1 2 3 5 6] [1 2 3 5 6]{10} 4{10} [1 2 3 5 6] [1 2 3 5 6]{9} 4{11} [1 2 3 5 6] [1 2 3 5 6]{9} 4{11} [1 2 3 5 6] [1 2 3 5 6]{9} 4{11} [1 2 3 5 6] [1 2 3 5 6]{6} 4{14} [1 2 3 5 6] [1 2 3 5 6]{6} 4{14} [1 2 3 5 6] [1 2 3 5 6]{5} 4{15} [1 2 3 5 6]*) | ([1 2 3 5 6]* 4{20} [1 2 3 5 6] 4{20} [1 2 3 5 6] 4{20} [1 2 3 5 6] 4{20} [1 2 3 5 6] 4{20} [1 2 3 5 6] 4{20} [1 2 3 5 6] [1 2 3 5 6]{6} 4{1} [1 2 3 5 6]{2} 4{11} [1 2 3 5 6] [1 2 3 5 6]{11} 4{9} [1 2 3 5 6] [1 2 3 5 6]{11} 4{9} [1 2 3 5 6] [1 2 3 5 6]{11} 4{9} [1 2 3 5 6] [1 2 3 5 6]{14} 4{6} [1 2 3 5 6] [1 2 3 5 6]{17} 4{3} [1 2 3 5 6] [1 2 3 5 6]{17} 4{3} [1 2 3 5 6] [1 2 3 5 6]{17} 4{3} [1 2 3 5 6] [1 2 3 5 6]{19} 4{1} [1 2 3 5 6]*) )",
    "( ([1 2 3 4 6]* 5{1} [1 2 3 4 6]{1} 5{3} [1 2 3 4 6]{11} [1 2 3 4 6] [1 2 3 4 6]{4} 5{5} [1 2 3 4 6]{11} [1 2 3 4 6] [1 2 3 4 6]{4} 5{2} [1 2 3 4 6]{14} [1 2 3 4 6] [1 2 3 4 6]{3} 5{3} [1 2 3 4 6]{14} [1 2 3 4 6] [1 2 3 4 6]{3} 5{3} [1 2 3 4 6]{14} [1 2 3 4 6] [1 2 3 4 6]{2} 5{4} [1 2 3 4 6]{14} [1 2 3 4 6] 5{6} [1 2 3 4 6]{14} [1 2 3 4 6] 5{5} [1 2 3 4 6]{15} [1 2 3 4 6] 5{5} [1 2 3 4 6]{15} [1 2 3 4 6] 5{5} [1 2 3 4 6]{15} [1 2 3 4 6] 5{4} [1 2 3 4 6]{16} [1 2 3 4 6] 5{5} [1 2 3 4 6]{15} [1 2 3 4 6] 5{5} [1 2 3 4 6]{15} [1 2 3 4 6] 5{5} [1 2 3 4 6]{15} [1 2 3 4 6] 5{5} [1 2 3 4 6]{15} [1 2 3 4 6] 5{5} [1 2 3 4 6]{15} [1 2 3 4 6] 5{5} [1 2 3 4 6]*) | ([1 2 3 4 6]* 5{11} [1 2 3 4 6]{9} [1 2 3 4 6] 5{11} [1 2 3 4 6]{9} [1 2 3 4 6] 5{12} [1 2 3 4 6]{8} [1 2 3 4 6] 5{14} [1 2 3 4 6]{6} [1 2 3 4 6] 5{6} [1 2 3 4 6]{1} 5{10} [1 2 3 4 6]{3} [1 2 3 4 6] [1 2 3 4 6]{10} 5{6} [1 2 3 4 6]{4} [1 2 3 4 6] [1 2 3 4 6]{15} 5{2} [1 2 3 4 6]{3} [1 2 3 4 6] [1 2 3 4 6]{15} 5{2} [1 2 3 4 6]{3} [1 2 3 4 6] [1 2 3 4 6]{15} 5{2} [1 2 3 4 6]*) | ([1 2 3 4 6]* 5{5} [1 2 3 4 6] [1 2 3 4 6]{15} 5{5} [1 2 3 4 6] [1 2 3 4 6]{15} 5{5} [1 2 3 4 6] [1 2 3 4 6]{15} 5{5} [1 2 3 4 6] [1 2 3 4 6]{15} 5{5} [1 2 3 4 6] [1 2 3 4 6]{15} 5{5} [1 2 3 4 6] [1 2 3 4 6]{16} 5{4} [1 2 3 4 6] [1 2 3 4 6]{15} 5{5} [1 2 3 4 6] [1 2 3 4 6]{15} 5{5} [1 2 3 4 6] [1 2 3 4 6]{15} 5{5} [1 2 3 4 6] [1 2 3 4 6]{14} 5{6} [1 2 3 4 6] [1 2 3 4 6]{14} 5{4} [1 2 3 4 6]{2} [1 2 3 4 6] [1 2 3 4 6]{14} 5{3} [1 2 3 4 6]{3} [1 2 3 4 6] [1 2 3 4 6]{14} 5{3} [1 2 3 4 6]{3} [1 2 3 4 6] [1 2 3 4 6]{14} 5{2} [1 2 3 4 6]{4} [1 2 3 4 6] [1 2 3 4 6]{11} 5{5} [1 2 3 4 6]{4} [1 2 3 4 6] [1 2 3 4 6]{11} 5{3} [1 2 3 4 6]{1} 5{1} [1 2 3 4 6]*) | ([1 2 3 4 6]* 5{2} [1 2 3 4 6]{15} [1 2 3 4 6] [1 2 3 4 6]{3} 5{2} [1 2 3 4 6]{15} [1 2 3 4 6] [1 2 3 4 6]{3} 5{2} [1 2 3 4 6]{15} [1 2 3 4 6] [1 2 3 4 6]{4} 5{6} [1 2 3 4 6]{10} [1 2 3 4 6] [1 2 3 4 6]{3} 5{10} [1 2 3 4 6]{1} 5{6} [1 2 3 4 6] [1 2 3 4 6]{6} 5{14} [1 2 3 4 6] [1 2 3 4 6]{8} 5{12} [1 2 3 4 6] [1 2 3 4 6]{9} 5{11} [1 2 3 4 6] [1 2 3 4 6]{9} 5{11} [1 2 3 4 6]*) | ([1 2 3 4 6]* 5{3} [1 2 3 4 6]{1} 5{1} [1 2 3 4 6]{4} [1 2 3 4 6] [1 2 3 4 6]{11} 5{5} [1 2 3 4 6]{4} [1 2 3 4 6] [1 2 3 4 6]{14} 5{2} [1 2 3 4 6]{4} [1 2 3 4 6] [1 2 3 4 6]{14} 5{3} [1 2 3 4 6]{3} [1 2 3 4 6] [1 2 3 4 6]{14} 5{3} [1 2 3 4 6]{3} [1 2 3 4 6] [1 2 3 4 6]{14} 5{4} [1 2 3 4 6]{2} [1 2 3 4 6] [1 2 3 4 6]{14} 5{6} [1 2 3 4 6] [1 2 3 4 6]{15} 5{5} [1 2 3 4 6] [1 2 3 4 6]{15} 5{5} [1 2 3 4 6] [1 2 3 4 6]{15} 5{5} [1 2 3 4 6] [1 2 3 4 6]{16} 5{4} [1 2 3 4 6] [1 2 3 4 6]{15} 5{5} [1 2 3 4 6] [1 2 3 4 6]{15} 5{5} [1 2 3 4 6] [1 2 3 4 6]{15} 5{5} [1 2 3 4 6] [1 2 3 4 6]{15} 5{5} [1 2 3 4 6] [1 2 3 4 6]{15} 5{5} [1 2 3 4 6] [1 2 3 4 6]{15} 5{5} [1 2 3 4 6]*) | ([1 2 3 4 6]* 5{11} [1 2 3 4 6] [1 2 3 4 6]{9} 5{11} [1 2 3 4 6] [1 2 3 4 6]{8} 5{12} [1 2 3 4 6] [1 2 3 4 6]{6} 5{14} [1 2 3 4 6] [1 2 3 4 6]{3} 5{10} [1 2 3 4 6]{1} 5{6} [1 2 3 4 6] [1 2 3 4 6]{4} 5{6} [1 2 3 4 6]{10} [1 2 3 4 6] [1 2 3 4 6]{3} 5{2} [1 2 3 4 6]{15} [1 2 3 4 6] [1 2 3 4 6]{3} 5{2} [1 2 3 4 6]{15} [1 2 3 4 6] [1 2 3 4 6]{3} 5{2} [1 2 3 4 6]*) | ([1 2 3 4 6]* 5{5} [1 2 3 4 6]{15} [1 2 3 4 6] 5{5} [1 2 3 4 6]{15} [1 2 3 4 6] 5{5} [1 2 3 4 6]{15} [1 2 3 4 6] 5{5} [1 2 3 4 6]{15} [1 2 3 4 6] 5{5} [1 2 3 4 6]{15} [1 2 3 4 6] 5{5} [1 2 3 4 6]{15} [1 2 3 4 6] 5{4} [1 2 3 4 6]{16} [1 2 3 4 6] 5{5} [1 2 3 4 6]{15} [1 2 3 4 6] 5{5} [1 2 3 4 6]{15} [1 2 3 4 6] 5{5} [1 2 3 4 6]{15} [1 2 3 4 6] 5{6} [1 2 3 4 6]{14} [1 2 3 4 6] [1 2 3 4 6]{2} 5{4} [1 2 3 4 6]{14} [1 2 3 4 6] [1 2 3 4 6]{3} 5{3} [1 2 3 4 6]{14} [1 2 3 4 6] [1 2 3 4 6]{3} 5{3} [1 2 3 4 6]{14} [1 2 3 4 6] [1 2 3 4 6]{4} 5{2} [1 2 3 4 6]{14} [1 2 3 4 6] [1 2 3 4 6]{4} 5{5} [1 2 3 4 6]{11} [1 2 3 4 6] [1 2 3 4 6]{4} 5{1} [1 2 3 4 6]{1} 5{3} [1 2 3 4 6]*) | ([1 2 3 4 6]* 5{2} [1 2 3 4 6]{3} [1 2 3 4 6] [1 2 3 4 6]{15} 5{2} [1 2 3 4 6]{3} [1 2 3 4 6] [1 2 3 4 6]{15} 5{2} [1 2 3 4 6]{3} [1 2 3 4 6] [1 2 3 4 6]{10} 5{6} [1 2 3 4 6]{4} [1 2 3 4 6] 5{6} [1 2 3 4 6]{1} 5{10} [1 2 3 4 6]{3} [1 2 3 4 6] 5{14} [1 2 3 4 6]{6} [1 2 3 4 6] 5{12} [1 2 3 4 6]{8} [1 2 3 4 6] 5{11} [1 2 3 4 6]{9} [1 2 3 4 6] 5{11} [1 2 3 4 6]*) )",
];
